50

99 39 297
96 22 298
95 13 287
95 8 299
91 16 279
91 31 275
91 15 288
90 31 293
89 25 285
86 17 281
85 7 256
85 29 263
84 1 293
79 27 285
76 31 238
69 17 239
68 23 275
68 22 245
65 4 280
64 0 264
63 2 214
58 6 255
58 9 244
54 16 282
53 16 294
52 24 227
50 14 235
49 0 233
48 21 208
48 5 295
45 23 280
45 16 264
43 7 247
42 6 299
36 5 140
35 5 291
33 4 107
31 4 143
31 13 285
30 7 181
30 2 117
30 14 297
29 11 169
27 2 288
27 6 263
26 11 133
22 0 200
22 10 109
22 10 166
21 11 261
